25025,
23878,
23650,
22378,
22378,
22172,
21916,
21392,
21073,
19645,
19442,
19301,
19018,
18441,
18277,
17861,
17562,
16875,
16780,
15840,
15803,
15578,
15405,
15009,
14953,
14841,
14744,
14458,
14326,
14252,
14184,
14084,
13828,
13828,
13702,
13679,
13679,
13679,
13195,
13195,
13195,
13178,
13058,
12967,
12784,
12766,
12550,
12265,
12265,
12265,
12265,
12265,
12142,
12142,
12142,
12142,
12142,
12058,
12009,
11992,
11783,
11783,
11783,
11610,
11610,
11461,
11461,
11367,
11367,
11314,
11052,
11052,
11036,
11036,
10943,
10810,
10772,
10724,
10584,
10577,
10577,
10478,
10383,
10339,
10090,
9957,
9867,
9867,
9856,
9806,
9806,
9705,
9705,
9705,
9705,
9705,
9705,
9705,
9705,
9705,
9705,
9705,
9705,
9705,
9648,
9648,
9640,
9628,
9628,
9628,
9628,
9628,
9628,
9591,
9591,
9591,
9569,
9569,
9569,
9569,
9569,
9504,
9504,
9504,
9504,
9504,
9504,
9504,
9504,
9383,
9383,
9330,
9330,
9330,
9330,
9328,
9328,
9328,
9328,
9127,
9058,
9058,
9058,
9008,
8981,
8981,
8981,
8888,
8888,
8888,
8875,
8875,
8875,
8875,
8875,
8875,
8875,
8875,
8875,
8875,
8875,
8771,
8771,
8771,
8710,
8710,
8710,
8710,
8710,
8710,
8710,
8710,
8710,
8710,
8635,
8635,
8635,
8635,
8635,
8635,
8635,
8635,
8635,
8635,
8635,
8635,
8635,
8635,
8635,
8635,
8635,
8635,
8635,
8635,
8635,
8635,
8635,
8611,
8611,
8611,
8611,
8611,
8611,
8611,
8611,
8611,
8611,
8611,
8611,
8611,
8611,
8611,
8611,
8611,
8611,
8611,
8611,
8611,
8611,
8611,
8611,
8611,
8611,
8611,
8611,
8611,
8611,
8611,
8611,
8611,
8611,
8611,
8611,
8611,
8611,
8611,
8611,
8611,
8611,
8611,
8611,
8611,
8611,
8611,
8611,
8611,
8611,
8611,
8611,
8611,
8611,
8611,
8611,
8611,
8611,
8611,
8611,
8611,
8611,
8611,
8611,
8611,
8611,
8611,
8611,
8611,
8611,
8611,
8611,
8611,
8611,
8611,
8611,
8611,
8611,
8611,
8611,
8611,
8611,
8611,
8611,
8611,
8611,
8611,
8611,
8611,
8611,
8611,
8611,
8611,
8611,
8611,
8611,
8611,
8611,
8611,
8611,
8611,
8611,
8611,
8611,
8611,
8611,
8611,
8611,
8611,
8611,
8611,
8611,
8611,
8611,
8611,
8611,
8611,
8611,
8611,
8611,
8611,
8611,
8611,
8611,
8611,
8611,
8611,
8611,
8611,
8611,
8611,
8611,
8611,
8611,
8611,
8611,
8611,
8611,
8611,
8611,
8611,
8611,
8611,
8611,
8611,
8611,
8611,
8611,
8611,
8611,
8611,
8611,
8611,
8611,
8611,
8611,
8611,
8611,
8611,
8611,
8611,
8611,
8611,
8611,
8611,
8611,
8611,
8611,
8611,
8611,
8604,
8604,
8604,
8604,
8604,
8604,
8604,
8604,
8604,
8604,
8604,
8604,
8604,
8604,
8604,
8604,
8604,
8604,
8604,
8604,
8604,
8604,
8604,
8604,
8604,
8604,
8604,
8604,
8604,
8604,
8604,
8604,
8604,
8604,
8604,
8604,
8604,
8604,
8604,
8604,
8604,
8604,
8604,
8604,
8604,
8604,
8604,
8604,
8604,
8604,
8604,
8604,
8604,
8604,
8604,
8604,
8604,
8604,
8604,
8604,
8604,
8604,
8604,
8604,
8604,
8604,
8604,
8604,
8604,
8604,
8604,
8604,
8604,
8604,
8604,
8604,
8604,
8604,
8604,
8604,
8604,
8604,
8604,
8604,
8604,
8604,
8604,
8604,
8604,
8604,
8604,
8604,
8604,
8604,
8604,
8604,
8604,
8604,
8604,
8604,
8604,
8604,
8604,
8604,
8604,
8604,
8604,
8604,
8604,
8604,
8604,
8604,
8604,
8604,
8604,
8604,
8604,
8604,
8604,
8604,
8604,
8604,
8604,
8604,
8604,
8604,
8604,
8604,
8604,
8604,
8604,
8604,
8604,
8604,
8604,
8604,
8604,
8604,
8604,
8604,
8604,
8604,
8604,
8604,
8604,
8604,
8604,
8604,
8604,
8604,
8604,
8604,
8604,
8604,
8604,
8604,
8604,
8604,
8604,
8604,
8604,
8604,
8604,
8604,
8604,
8604,
8604,
8604,
8604,
8604,
8604,
8604,
8604,
8604,
8604,
8604,
8604,
8604,
8604,
8604,
8604,
8604,
8604,
8604,
8604,
8604,
8604,
8604,
8604,
8604,
8604,
8604,
8604,
8604,
8604,
8604,
8604,
8604,
8604,
8604,
8604,
8604,
8604,
8604,
8604,
8604,
8604,
8604,
8604,
8604,
8604,
8604,
8604,
8604,
8604,
8604,
8604,
8604,
8604,
8604,
8604,
8604,
8604,
8604,
8604,
8604,
8604,
8604,
8604,
8604,
8604,
8604,
8604,
8604,
8604,
8604,
8604,
8604,
8604,
8604,
8604,
8604,
8604,
8604,
8604,
8604,
8604,
8604,
8604,
8604,
8604,
8604,
8604,
8604,
8604,
8604,
8604,
8604,
8604,
8604,
8604,
8604,
8604,
8604,
8604,
8604,
8604,
8604,
8604,
8604,
8604,
8604,
8604,
8604,
8604,
8604,
8604,
8604,
8604,
8604,
8604,
8604,
8604,
8604,
8604,
8604,
8604,
8604,
8604,
8604,
8604,
8604,
8604,
8604,
8604,
8604,
8604,
8604,
8604,
8604,
8604,
8604,
8604,
8604,
8604,
8604,
8604,
8604,
8604,
8604,
8604,
8604,
8604,
8604,
8604,
8604,
8604,
8604,
8604,
8604,
8604,
8604,
8604,
8604,
8604,
8604,
8604,
8604,
8604,
8604,
8604,
8604,
8604,
8604,
8604,
8604,
8604,
8604,
8604,
8604,
8604,
8604,
8604,
8604,
8604,
8604,
8604,
8604,
8604,
8604,
8604,
8604,
8604,
8604,
8604,
8604,
8604,
8604,
8604,
8604,
8604,
8604,
8604,
8604,
8604,
8604,
8604,
8604,
8604,
8604,
8604,
8604,
8604,
8604,
8604,
8604,
8604,
8604,
8604,
8604,
8604,
8604,
8604,
8604,
8604,
8604,
8604,
8604,
8604,
8604,
8604,
8604,
8604,
8604,
8604,
8604,
8604,
8604,
8604,
8604,
8604,
8604,
8604,
8604,
8604,
8604,
8604,
8604,
8604,
8604,
8604,
8604,
8604,
8604,
8604,
8604,
8604,
8604,
8604,
8604,
8604,
8604,
8604,
8604,
8604,
8604,
8604,
8604,
8604,
8604,
8604,
8604,
8604,
8604,
8604,
8604,
8604,
8604,
8604,
8604,
8604,
8604,
8604,
8604,
8604,
8604,
8604,
8604,
8604,
8604,
8604,
8604,
8604,
8604,
8604,
8604,
8604,
8604,
8604,
8604,
8604,
8604,
8604,
8604,
8604,
8604,
8604,
8604,
8604,
8604,
8604,
8604,
8604,
8604,
8604,
8604,
8604,
8604,
8604,
8604,
8604,
8604,
8604,
8604,
8604,
8604,
8604,
8604,
8604,
8604,
8604,
8604,
8604,
8604,
8604,
8604,
8604,
8604,
8604,
8604,
8604,
8604,
8604,
8604,
8604,
8604,
8604,
8604,
8604,
8604,
8604,
8604,
8604,
8604,
8604,
8604,
8604,
8604,
8604,
8604,
8604,
8604,
8604,
8604,
8604,
8604,
8604,
8604,
8604,
8604,
8604,
8604,
8604,
8604,
8604,
8604,
8604,
8604,
8604,
8604,
8604,
8604,
8604,
8604,
8604,
8604,
8604,
8604,
8604,
8604,
8604,
8604,
8604,
8604,
8604,
8604,
8604,
8604,
8604,
8604,
8604,
8604,
8604,
8604,
8604,
8604,
8604,
8604,
8604,
8604,
8604,
8604,
8604,
8604,
8604,
8604,
8604,
8604,
8604,
8604,
8604,
8604,
8604,
8604,
8604,
8604,
8604,
8604,
8604,
8604,
8604,
8604,
8604,
8604,
8604,
8604,
8604,
8604,
8604,
8604,
8604,
8604,
8604,
8604,
8604,
8604,
8604,
8604,
8604,
8604,
8604,
8604,
8604,
8604,
8604,
8604,
8604,
8604,
8604,
8604,
8604,
8604,
8604,
8604,
8604,
8604,
8604,
8604,
8604,
8604,
8604,
8604,
8604,
8604,
8604,
8604,
8604,
8604,
8604,
8604,
8604,
8604,
8604,
8604,
8604,
8604,
8604,
8604,
8604,
8604,
8604,
8604,
8604,
8604,
8604,
8604,
8604,
8604,
8604,
8604,
8604,
8604,
8604,
8604,
8604,
8604,
8604,
8604,
8604,
8604,
8604,
8604,
8604,
8604,
8604,
8604,
8604,
8604,
8604,
8604,
8604,
8604,
8604,
8604,
8604,
8604,
8604,
8604,
8604,
8604,
8604,
8604,
8604,
8604,
8604,
8604,
8604,
8604,
8604,
8604,
8604,
8604,
8604,
8604,
8604,
8604,
8604,
8604,
8604,
8604,
8604,
8604,
8604,
8604,
8604,
8604,
8604,
8604,
8604,
8604,
8604,
8604,
8604,
8604,
8604,
8604,
8604,
8604,
8604,
8604,
8604,
8604,
8604,
8604,
8604,
8604,
8604,
8604,
8604,
8604,
8604,
8604,
8604,
8604,
8604,
8604,
8604,
8604,
8604,
8604,
8604,
8604,
8604,
8604,
8604,
8604,
8604,
8604,
8604,
8604,
8604,
8604,
8604,
8604,
8604,
8604,
8604,
8604,
8604,
8604,
8604,
8604,
8604,
8604,
8604,
8604,
8604,
8604,
8604,
8604,
8604,
8604,
8604,
8604,
8604,
8604,
8604,
8604,
8604,
8604,
8604,
8604,
8604,
8604,
8604,
8604,
8604,
8604,
8604,
8604,
8604,
8604,
8604,
8604,
8604,
8604,
8604,
8604,
8604,
8604,
8604,
8604,
8604,
8604,
8604,
8604,
8604,
8604,
8604,
8604,
8604,
8604,
8604,
8604,
8604,
8604,
8604,
8604,
8604,
8604,
8604,
8604,
8604,
8604,
8604,
8604,
8604,
8604,
8604,
8604,
8604,
8604,
8604,
8604,
8604,
8604,
8604,
8604,
8604,
8604,
8604,
8604,
8604,
8604,
8604,
8604,
8604,
8604,
8604,
8604,
8604,
8604,
8604,
8604,
8604,
8604,
8604,
8604,
8604,
8604,
8604,
8604,
8604,
8604,
8604,
8604,
8604,
8604,
8604,
8604,
8604,
8604,
8604,
8604,
8604,
8604,
8604,
8604,
8604,
8604,
8604,
8604,
8604,
8604,
8604,
8604,
8604,
8604,
8604,
8604,
8604,
8604,
8604,
8604,
8604,
8604,
8604,
8604,
8604,
8604,
8604,
8604,
8604,
8604,
8604,
8604,
8604,
8604,
8604,
8604,
8604,
8604,
8604,
8604,
8604,
8604,
8604,
8604,
8604,
8604,
8604,
8604,
8604,
8604,
8604,
8604,
8604,
8604,
8604,
8604,
8604,
8604,
8604,
8604,
8604,
8604,
8604,
8604,
8604,
8604,
8604,
8604,
8604,
8604,
8604,
8604,
8604,
8604,
8604,
8604,
8604,
8604,
8604,
8604,
8604,
8604,
8604,
8604,
8604,
8604,
8604,
8604,
8604,
8604,
8604,
8604,
8604,
8604,
8604,
8604,
8604,
8604,
8604,
8604,
8604,
8604,
8604,
8604,
8604,
8604,
8604,
8604,
8604,
8604,
8604,
8604,
8604,
8604,
8604,
8604,
8604,
8604,
8604,
8604,
8604,
8604,
8604,
8604,
8604,
8604,
8604,
8604,
8604,
8604,
8604,
8604,
8604,
8604,
8604,
8604,
8604,
8604,
8604,
8604,
8604,
8604,
8604,
8604,
8604,
8604,
8604,
8604,
8604,
8604,
8604,
8604,
8604,
8604,
8604,
8604,
8604,
8604,
8604,
8604,
8604,
8604,
8604,
8604,
8604,
8604,
8604,
8604,
8604,
8604,
8604,
8604,
8604,
8604,
8604,
8604,
8604,
8604,
8604,
8604,
8604,
8604,
8604,
8604,
8604,
8604,
8604,
8604,
8604,
8604,
8604,
8604,
8604,
8604,
8604,
8604,
8604,
8604,
8604,
8604,
8604,
8604,
8604,
8604,
8604,
8604,
8604,
8604,
8604,
8604,
8604,
8604,
8604,
8604,
8604,
8604,
8604,
8604,
8604,
8604,
8604,
8604,
8604,
8604,
8604,
8604,
8604,
8604,
8604,
8604,
8604,
8604,
8604,
8604,
8604,
8604,
8604,
8604,
8604,
8604,
8604,
8604,
8604,
8604,
8604,
8604,
8604,
8604,
8604,
8604,
1,
